101101000001100000110110111100001010001000000000000000001101010000001111100011100000001000000000111111001000100001110000010101000000001100010101011110111001011000000011000101011011101111010110010000011010100110110000001101010000000011101000100100100111001100000000101110100000010011101100011101110110011000010000000011101110111001001100101011010010110110100100111011001111111000000000011010000000100000110110111100001010001000000000000000000001101000001111010011100000001000000000111111001000100010110000001111110000001100010101011110111001011000000011000101011011101111010110